Minimize

1.0 y_0_1 + 2.0 y_0_2 + 3.0 y_0_3 + 4.0 y_0_4 + 5.0 y_0_5 + 4.0 y_1_2 + 5.0 y_1_3 + 6.0 y_1_4 + 7.0 y_2_3 + 8.0 y_2_4 + 9.0 y_2_5 + 10.0 y_3_4 + 11.0 y_3_5 + 12.0 y_3_6 + 13.0 y_4_5 + 14.0 y_4_6 + 15.0 y_4_7 + 16.0 y_5_6 + 17.0 y_5_7 + 18.0 y_5_8 + 19.0 y_5_9 + 19.0 y_6_7 + 20.0 y_6_8 + 21.0 y_6_9 + 22.0 y_7_8 + 25.0 y_8_9


Subject To

a0: y_0_1 + y_0_2 + y_0_3 + y_0_4 + y_0_5 >= 15
b0: y_0_1 - y_1_2 - y_1_3 - y_1_4 = 0
b1: y_0_2 + y_1_2 - y_2_3 - y_2_4 - y_2_5 = 0
b2: y_0_3 + y_1_3 + y_2_3 - y_3_4 - y_3_5 - y_3_6 = 0
b3: y_0_4 + y_1_4 + y_2_4 + y_3_4 - y_4_5 - y_4_6 - y_4_7 = 0
b4: y_0_5 + y_2_5 + y_3_5 + y_4_5 - y_5_6 - y_5_7 - y_5_8 - y_5_9 = 0
b5: y_3_6 + y_4_6 + y_5_6 - y_6_7 - y_6_8 - y_6_9 = 0
b6: y_4_7 + y_5_7 + y_6_7 - y_7_8 = 0
b7: y_5_8 + y_6_8 + y_7_8 - y_8_9 = 0
c0: y_0_1 <= 1.0
c1: y_0_2 <= 2.0
c2: y_0_3 <= 3.0
c3: y_0_4 <= 4.0
c4: y_0_5 <= 5.0
c5: y_1_2 <= 3.0
c6: y_1_3 <= 4.0
c7: y_1_4 <= 5.0
c8: y_2_3 <= 5.0
c9: y_2_4 <= 6.0
c10: y_2_5 <= 7.0
c11: y_3_4 <= 7.0
c12: y_3_5 <= 8.0
c13: y_3_6 <= 9.0
c14: y_4_5 <= 9.0
c15: y_4_6 <= 10.0
c16: y_4_7 <= 11.0
c17: y_5_6 <= 11.0
c18: y_5_7 <= 12.0
c19: y_5_8 <= 13.0
c20: y_5_9 <= 14.0
c21: y_6_7 <= 13.0
c22: y_6_8 <= 14.0
c23: y_6_9 <= 15.0
c24: y_7_8 <= 15.0
c25: y_8_9 <= 17.0




 
End
